&CONTROL
  calculation  = "scf",
  prefix       = "SnSe_pnma",
  pseudo_dir   = "../pseudo",
  outdir       = "./tmp",
  restart_mode = "from_scratch",
  verbosity    = "high",
  tprnfor      = .true.,
  wf_collect   =.true.
/

&SYSTEM
  ibrav       = 8,	 
  A           = 11.37, 
  B           = 4.186,
  C           = 4.439,
  nat         = 8,
  ntyp        = 2,
  ecutwfc     = 50,	 
  ecutrho     = 500, 
  nbnd        = 50,
  occupations = 'fixed',
/

&ELECTRONS
  conv_thr    = 1.D-8,
  mixing_beta = 0.7D0,
/

ATOMIC_SPECIES
Sn 118.710  Sn_pbe_v1.uspp.F.UPF
Se  78.971  Se_pbe_v1.uspp.F.UPF

ATOMIC_POSITIONS {crystal}
Se        0.85550000        0.25000000        0.48280000
Sn        0.11870000        0.25000000        0.09880000
Se        0.64450000        0.75000000        0.98280000
Sn        0.38130000        0.75000000        0.59880000
Se        0.35550000        0.25000000        0.01720000
Sn        0.61870000        0.25000000        0.40120000
Se        0.14450000        0.75000000        0.51720000
Sn        0.88130000        0.75000000        0.90120000 

K_POINTS {automatic}
  4 12 12 1 1 1
