&BANDS
  prefix  = 'SnSe_pnma'
  outdir  = './tmp'
  filband = 'SnSe_pnma.bands.dat'
/
