&INPUTPP
  prefix  = 'SnSe_monolayer',
  outdir  = './tmp',
  filplot = 'potential_files/snse_mono_potential_C24.pp',
  plot_num = 11,
/
&PLOT
  iflag = 3,
  output_format = 5,
/
