&CONTROL
  calculation  = 'bands',
  prefix       = 'SnSe_pnma',
  pseudo_dir   = '../pseudo',
  outdir       = './tmp',
  verbosity    = 'high'
/

&SYSTEM
  ibrav       = 8,
  A           = 4.5555,  
  B           = 4.1714,
  C           = 11.5494,
  nat         = 8,
  ntyp        = 2,
  ecutwfc     = 30,
  ecutrho     = 300,
  nbnd        = 50,
  occupations = 'fixed',
  vdw_corr    = 'grimme-d3'
/

&ELECTRONS
  conv_thr    = 1.D-8,
  mixing_beta = 0.7D0
/

ATOMIC_SPECIES
Sn 118.710  Sn_pbe_v1.uspp.F.UPF
Se  78.971  Se_pbe_v1.uspp.F.UPF

ATOMIC_POSITIONS {crystal}
Se  0.4832480702  0.7500000000  0.8549563467
Sn  0.1122870178  0.7500000000  0.1165395030
Se  0.9832480702  0.2500000000  0.6450436533
Sn  0.6122870178  0.2500000000  0.3834604970
Se  0.0167519298  0.7500000000  0.3549563467
Sn  0.3877129822  0.7500000000  0.6165395030
Se  0.5167519298  0.2500000000  0.1450436533
Sn  0.8877129822  0.2500000000  0.8834604970

K_POINTS {crystal_b}
10
0.0000000000  0.0000000000  0.0000000000  30  ! Gamma
0.5000000000  0.0000000000  0.0000000000  30  ! X
0.5000000000  0.5000000000  0.0000000000  30  ! S
0.0000000000  0.5000000000  0.0000000000  30  ! Y
0.0000000000  0.0000000000  0.0000000000  30  ! Gamma
0.0000000000  0.0000000000  0.5000000000  30  ! Z
0.5000000000  0.0000000000  0.5000000000  30  ! U
0.5000000000  0.5000000000  0.5000000000  30  ! R
0.0000000000  0.5000000000  0.5000000000  30  ! T
0.0000000000  0.0000000000  0.5000000000   1  ! Z
